%%
% Autogenerated by /opt/prj/battleships-ai/src/server/solver.py, instance 0 6x6 [3] #1 <c1r4m>
% Source: https://www.puzzle-battleships.com/?size=0
%%

size = 6;
hints_num = 2;
hints = [| 1, 4 | 4, 5 |];
ships_num = 6;

constr_rows = [2, 2, 0, 3, 1, 2];
constr_cols = [2, 2, 1, 2, 2, 1];

given_ships = [|
<>, <>, <>, <>, 1, |
<>, <>, <>, <>, 1, |
<>, <>, <>, <>, 1, |
<>, <>, <>, <>, 2, |
<>, <>, <>, <>, 2, |
<>, <>, <>, <>, 3  |];

